NAME          DCAP_2_4_3_500_SS151
ROWS
 N  OBJ
 L  CON1
 L  CON2
 L  CON3
 L  CON4
 L  CON5
 L  CON6
 L  CON7
 L  CON8
 L  CON9
 L  CON10
 L  CON11
 L  CON12
 E  CON13
 E  CON14
 E  CON15
 E  CON16
 E  CON17
 E  CON18
 E  CON19
 E  CON20
 E  CON21
 E  CON22
 E  CON23
 E  CON24
COLUMNS
    x[1,1]    OBJ       6.180167      CON1      1.000000    
    x[1,1]    CON7      -1.000000     CON8      -1.000000   
    x[1,1]    CON9      -1.000000   
    x[1,2]    OBJ       6.563535      CON2      1.000000    
    x[1,2]    CON8      -1.000000     CON9      -1.000000   
    x[1,3]    OBJ       7.443064      CON3      1.000000    
    x[1,3]    CON9      -1.000000   
    x[2,1]    OBJ       6.732585      CON4      1.000000    
    x[2,1]    CON10     -1.000000     CON11     -1.000000   
    x[2,1]    CON12     -1.000000   
    x[2,2]    OBJ       5.039546      CON5      1.000000    
    x[2,2]    CON11     -1.000000     CON12     -1.000000   
    x[2,3]    OBJ       6.054841      CON6      1.000000    
    x[2,3]    CON12     -1.000000   
    MARKER    'MARKER'                'INTORG'
    u[1,1]    OBJ       48.076654     CON1      -1.000000   
    u[1,2]    OBJ       20.066487     CON2      -1.000000   
    u[1,3]    OBJ       32.230043     CON3      -1.000000   
    u[2,1]    OBJ       49.996186     CON4      -1.000000   
    u[2,2]    OBJ       49.466655     CON5      -1.000000   
    u[2,3]    OBJ       27.484319     CON6      -1.000000   
    y[1,1,1]  OBJ       5.826833      CON7      1.351936    
    y[1,1,1]  CON13     1.000000    
    y[1,1,2]  OBJ       5.871566      CON8      1.335187    
    y[1,1,2]  CON14     1.000000    
    y[1,1,3]  OBJ       8.725398      CON9      1.074124    
    y[1,1,3]  CON15     1.000000    
    y[1,2,1]  OBJ       6.436394      CON7      1.346464    
    y[1,2,1]  CON16     1.000000    
    y[1,2,2]  OBJ       7.108535      CON8      0.780910    
    y[1,2,2]  CON17     1.000000    
    y[1,2,3]  OBJ       5.554242      CON9      0.560682    
    y[1,2,3]  CON18     1.000000    
    y[1,3,1]  OBJ       7.022247      CON7      1.312555    
    y[1,3,1]  CON19     1.000000    
    y[1,3,2]  OBJ       6.496998      CON8      0.802611    
    y[1,3,2]  CON20     1.000000    
    y[1,3,3]  OBJ       6.211669      CON9      0.550806    
    y[1,3,3]  CON21     1.000000    
    y[1,4,1]  OBJ       6.476428      CON7      0.677574    
    y[1,4,1]  CON22     1.000000    
    y[1,4,2]  OBJ       6.825161      CON8      0.849367    
    y[1,4,2]  CON23     1.000000    
    y[1,4,3]  OBJ       6.794225      CON9      1.133557    
    y[1,4,3]  CON24     1.000000    
    y[2,1,1]  OBJ       9.227344      CON10     1.351936    
    y[2,1,1]  CON13     1.000000    
    y[2,1,2]  OBJ       9.036776      CON11     1.335187    
    y[2,1,2]  CON14     1.000000    
    y[2,1,3]  OBJ       5.752329      CON12     1.074124    
    y[2,1,3]  CON15     1.000000    
    y[2,2,1]  OBJ       7.131550      CON10     1.346464    
    y[2,2,1]  CON16     1.000000    
    y[2,2,2]  OBJ       8.803455      CON11     0.780910    
    y[2,2,2]  CON17     1.000000    
    y[2,2,3]  OBJ       5.635635      CON12     0.560682    
    y[2,2,3]  CON18     1.000000    
    y[2,3,1]  OBJ       9.672908      CON10     1.312555    
    y[2,3,1]  CON19     1.000000    
    y[2,3,2]  OBJ       7.982041      CON11     0.802611    
    y[2,3,2]  CON20     1.000000    
    y[2,3,3]  OBJ       5.652295      CON12     0.550806    
    y[2,3,3]  CON21     1.000000    
    y[2,4,1]  OBJ       5.953615      CON10     0.677574    
    y[2,4,1]  CON22     1.000000    
    y[2,4,2]  OBJ       8.403302      CON11     0.849367    
    y[2,4,2]  CON23     1.000000    
    y[2,4,3]  OBJ       6.693492      CON12     1.133557    
    y[2,4,3]  CON24     1.000000    
    z[1,1]    OBJ       532.296928    CON13     1.000000    
    z[1,2]    OBJ       816.613050    CON14     1.000000    
    z[1,3]    OBJ       567.024291    CON15     1.000000    
    z[2,1]    OBJ       694.196700    CON16     1.000000    
    z[2,2]    OBJ       552.737147    CON17     1.000000    
    z[2,3]    OBJ       633.851135    CON18     1.000000    
    z[3,1]    OBJ       738.359094    CON19     1.000000    
    z[3,2]    OBJ       524.117726    CON20     1.000000    
    z[3,3]    OBJ       969.129528    CON21     1.000000    
    z[4,1]    OBJ       569.232794    CON22     1.000000    
    z[4,2]    OBJ       739.076395    CON23     1.000000    
    z[4,3]    OBJ       920.306517    CON24     1.000000    
    MARKER    'MARKER'                 'INTEND'
RHS
    RHS       CON1      -0.000000     CON2      -0.000000   
    RHS       CON3      -0.000000     CON4      -0.000000   
    RHS       CON5      -0.000000     CON6      -0.000000   
    RHS       CON7      -0.000000     CON8      -0.000000   
    RHS       CON9      -0.000000     CON10     -0.000000   
    RHS       CON11     -0.000000     CON12     -0.000000   
    RHS       CON13     1.000000      CON14     1.000000    
    RHS       CON15     1.000000      CON16     1.000000    
    RHS       CON17     1.000000      CON18     1.000000    
    RHS       CON19     1.000000      CON20     1.000000    
    RHS       CON21     1.000000      CON22     1.000000    
    RHS       CON23     1.000000      CON24     1.000000    
BOUNDS
 BV BOUND     u[1,1]  
 BV BOUND     u[1,2]  
 BV BOUND     u[1,3]  
 BV BOUND     u[2,1]  
 BV BOUND     u[2,2]  
 BV BOUND     u[2,3]  
 BV BOUND     y[1,1,1]
 BV BOUND     y[1,1,2]
 BV BOUND     y[1,1,3]
 BV BOUND     y[1,2,1]
 BV BOUND     y[1,2,2]
 BV BOUND     y[1,2,3]
 BV BOUND     y[1,3,1]
 BV BOUND     y[1,3,2]
 BV BOUND     y[1,3,3]
 BV BOUND     y[1,4,1]
 BV BOUND     y[1,4,2]
 BV BOUND     y[1,4,3]
 BV BOUND     y[2,1,1]
 BV BOUND     y[2,1,2]
 BV BOUND     y[2,1,3]
 BV BOUND     y[2,2,1]
 BV BOUND     y[2,2,2]
 BV BOUND     y[2,2,3]
 BV BOUND     y[2,3,1]
 BV BOUND     y[2,3,2]
 BV BOUND     y[2,3,3]
 BV BOUND     y[2,4,1]
 BV BOUND     y[2,4,2]
 BV BOUND     y[2,4,3]
 BV BOUND     z[1,1]  
 BV BOUND     z[1,2]  
 BV BOUND     z[1,3]  
 BV BOUND     z[2,1]  
 BV BOUND     z[2,2]  
 BV BOUND     z[2,3]  
 BV BOUND     z[3,1]  
 BV BOUND     z[3,2]  
 BV BOUND     z[3,3]  
 BV BOUND     z[4,1]  
 BV BOUND     z[4,2]  
 BV BOUND     z[4,3]  
ENDATA
